p cnf 3635 1042
-3281 3464 0
-3464 3281 0
-3466 -3467 0
-3283 3466 0
-3284 3467 0
-3466 3283 0
-3467 3284 0
-3469 -3470 0
-3286 3469 0
-3287 3470 0
-3469 3286 0
-3470 3287 0
-3472 -3473 0
-3472 -3474 0
-3473 -3474 0
-3289 3472 0
-3290 3473 0
-3291 3474 0
-3472 3289 0
-3473 3290 0
-3474 3291 0
-3476 -3477 0
-3293 3476 0
-3294 3477 0
-3476 3293 0
-3477 3294 0
-3479 -3480 0
-3479 -3481 0
-3480 -3481 0
-3296 3479 0
-3297 3480 0
-3298 3481 0
-3479 3296 0
-3480 3297 0
-3481 3298 0
-3483 -3484 0
-3300 3483 0
-3301 3484 0
-3483 3300 0
-3484 3301 0
-3486 -3487 0
-3486 -3488 0
-3487 -3488 0
-3303 3486 0
-3304 3487 0
-3305 3488 0
-3486 3303 0
-3487 3304 0
-3488 3305 0
-3490 -3491 0
-3307 3490 0
-3308 3491 0
-3490 3307 0
-3491 3308 0
-3493 -3494 0
-3493 -3495 0
-3494 -3495 0
-3310 3493 0
-3311 3494 0
-3312 3495 0
-3493 3310 0
-3494 3311 0
-3495 3312 0
-3497 -3498 0
-3314 3497 0
-3315 3498 0
-3497 3314 0
-3498 3315 0
-3500 -3501 0
-3500 -3502 0
-3501 -3502 0
-3317 3500 0
-3318 3501 0
-3319 3502 0
-3500 3317 0
-3501 3318 0
-3502 3319 0
-3504 -3505 0
-3321 3504 0
-3322 3505 0
-3504 3321 0
-3505 3322 0
-3507 -3508 0
-3507 -3509 0
-3508 -3509 0
-3324 3507 0
-3325 3508 0
-3326 3509 0
-3507 3324 0
-3508 3325 0
-3509 3326 0
-3511 -3512 0
-3328 3511 0
-3329 3512 0
-3511 3328 0
-3512 3329 0
-3514 -3515 0
-3514 -3516 0
-3515 -3516 0
-3331 3514 0
-3332 3515 0
-3333 3516 0
-3514 3331 0
-3515 3332 0
-3516 3333 0
-3518 -3519 0
-3335 3518 0
-3336 3519 0
-3518 3335 0
-3519 3336 0
-3521 -3522 0
-3521 -3523 0
-3522 -3523 0
-3338 3521 0
-3339 3522 0
-3340 3523 0
-3521 3338 0
-3522 3339 0
-3523 3340 0
-3525 -3526 0
-3342 3525 0
-3343 3526 0
-3525 3342 0
-3526 3343 0
-3528 -3529 0
-3528 -3530 0
-3529 -3530 0
-3345 3528 0
-3346 3529 0
-3347 3530 0
-3528 3345 0
-3529 3346 0
-3530 3347 0
-3532 -3533 0
-3349 3532 0
-3350 3533 0
-3532 3349 0
-3533 3350 0
-3535 -3536 0
-3535 -3537 0
-3536 -3537 0
-3352 3535 0
-3353 3536 0
-3354 3537 0
-3535 3352 0
-3536 3353 0
-3537 3354 0
-3539 -3540 0
-3356 3539 0
-3357 3540 0
-3539 3356 0
-3540 3357 0
-3542 -3543 0
-3542 -3544 0
-3543 -3544 0
-3359 3542 0
-3360 3543 0
-3361 3544 0
-3542 3359 0
-3543 3360 0
-3544 3361 0
-3546 -3547 0
-3363 3547 0
-3364 3546 0
-3546 3364 0
-3547 3363 0
-3549 3559 3560 3561 3562 3563 0
-3559 -3560 0
-3559 -3561 0
-3559 -3562 0
-3559 -3563 0
-3560 -3561 0
-3560 -3562 0
-3560 -3563 0
-3561 -3562 0
-3561 -3563 0
-3562 -3563 0
-3549 3564 3565 3566 3567 3568 3569 3570 0
-3564 -3565 0
-3564 -3566 0
-3564 -3567 0
-3564 -3568 0
-3564 -3569 0
-3564 -3570 0
-3565 -3566 0
-3565 -3567 0
-3565 -3568 0
-3565 -3569 0
-3565 -3570 0
-3566 -3567 0
-3566 -3568 0
-3566 -3569 0
-3566 -3570 0
-3567 -3568 0
-3567 -3569 0
-3567 -3570 0
-3568 -3569 0
-3568 -3570 0
-3569 -3570 0
-3549 3571 3572 3573 3574 3575 3576 3577 3578 0
-3571 -3572 0
-3571 -3573 0
-3571 -3574 0
-3571 -3575 0
-3571 -3576 0
-3571 -3577 0
-3571 -3578 0
-3572 -3573 0
-3572 -3574 0
-3572 -3575 0
-3572 -3576 0
-3572 -3577 0
-3572 -3578 0
-3573 -3574 0
-3573 -3575 0
-3573 -3576 0
-3573 -3577 0
-3573 -3578 0
-3574 -3575 0
-3574 -3576 0
-3574 -3577 0
-3574 -3578 0
-3575 -3576 0
-3575 -3577 0
-3575 -3578 0
-3576 -3577 0
-3576 -3578 0
-3577 -3578 0
-3549 3555 0
-3549 3556 0
-3549 3558 0
-3550 3559 3560 3561 3562 3563 0
-3559 -3560 0
-3559 -3561 0
-3559 -3562 0
-3559 -3563 0
-3560 -3561 0
-3560 -3562 0
-3560 -3563 0
-3561 -3562 0
-3561 -3563 0
-3562 -3563 0
-3550 3564 3565 3566 3567 3568 3569 3570 0
-3564 -3565 0
-3564 -3566 0
-3564 -3567 0
-3564 -3568 0
-3564 -3569 0
-3564 -3570 0
-3565 -3566 0
-3565 -3567 0
-3565 -3568 0
-3565 -3569 0
-3565 -3570 0
-3566 -3567 0
-3566 -3568 0
-3566 -3569 0
-3566 -3570 0
-3567 -3568 0
-3567 -3569 0
-3567 -3570 0
-3568 -3569 0
-3568 -3570 0
-3569 -3570 0
-3550 3571 3572 3573 3574 3575 3576 3577 3578 0
-3571 -3572 0
-3571 -3573 0
-3571 -3574 0
-3571 -3575 0
-3571 -3576 0
-3571 -3577 0
-3571 -3578 0
-3572 -3573 0
-3572 -3574 0
-3572 -3575 0
-3572 -3576 0
-3572 -3577 0
-3572 -3578 0
-3573 -3574 0
-3573 -3575 0
-3573 -3576 0
-3573 -3577 0
-3573 -3578 0
-3574 -3575 0
-3574 -3576 0
-3574 -3577 0
-3574 -3578 0
-3575 -3576 0
-3575 -3577 0
-3575 -3578 0
-3576 -3577 0
-3576 -3578 0
-3577 -3578 0
-3550 3557 0
-3550 3556 0
-3550 3554 0
-3549 -3550 0
-3549 -3551 0
-3549 -3552 0
-3550 -3551 0
-3550 -3552 0
-3551 -3552 0
-3559 -3554 3251 0
-3562 -3554 3239 0
-3560 -3554 3236 0
-3563 -3554 3258 0
-3561 -3554 3250 0
-3559 -3555 3419 0
-3563 -3555 3394 0
-3560 -3555 3395 0
-3561 -3555 3411 0
-3562 -3555 3426 0
-3562 -3564 -3556 3409 0
-3562 -3569 -3556 3417 0
-3562 -3565 -3556 3396 0
-3560 -3568 -3556 3397 0
-3562 -3570 -3556 3399 0
-3559 -3565 -3556 3400 0
-3561 -3565 -3556 3412 0
-3563 -3568 -3556 3428 0
-3561 -3570 -3556 3402 0
-3562 -3567 -3556 3403 0
-3561 -3568 -3556 3421 0
-3559 -3568 -3556 3413 0
-3563 -3569 -3556 3405 0
-3563 -3565 -3556 3429 0
-3559 -3569 -3556 3430 0
-3562 -3566 -3556 3423 0
-3560 -3565 -3556 3424 0
-3563 -3564 -3556 3407 0
-3563 -3566 -3556 3425 0
-3560 -3570 -3556 3416 0
-3563 -3570 -3556 3408 0
-3562 -3568 -3556 3427 0
-3559 -3570 -3556 3432 0
-3560 -3566 -3556 3433 0
-3559 -3566 -3556 3434 0
-3575 -3557 3420 0
-3574 -3557 3394 0
-3576 -3557 3395 0
-3572 -3557 3414 0
-3571 -3557 3419 0
-3573 -3557 3411 0
-3577 -3557 3426 0
-3578 -3557 3401 0
-3571 -3558 3251 0
-3576 -3558 3236 0
-3572 -3558 3262 0
-3577 -3558 3239 0
-3575 -3558 3243 0
-3574 -3558 3258 0
-3573 -3558 3250 0
-3578 -3558 3232 0
-3549 -3562 -3577 0
-3549 -3559 -3577 0
-3549 -3559 -3574 0
-3549 -3559 -3571 0
-3549 -3560 -3577 0
-3549 -3560 -3576 0
-3549 -3560 -3574 0
-3549 -3560 -3571 0
-3549 -3563 -3577 0
-3549 -3563 -3574 0
-3549 -3561 -3577 0
-3549 -3561 -3573 0
-3549 -3561 -3576 0
-3549 -3561 -3574 0
-3549 -3561 -3571 0
-3549 -3559 -3567 0
-3549 -3559 -3564 0
-3549 -3560 -3569 0
-3549 -3560 -3567 0
-3549 -3560 -3564 0
-3549 -3563 -3567 0
-3549 -3561 -3569 0
-3549 -3561 -3567 0
-3549 -3561 -3566 0
-3549 -3561 -3564 0
-3550 -3562 -3577 0
-3550 -3559 -3577 0
-3550 -3559 -3574 0
-3550 -3559 -3571 0
-3550 -3560 -3577 0
-3550 -3560 -3576 0
-3550 -3560 -3574 0
-3550 -3560 -3571 0
-3550 -3563 -3577 0
-3550 -3563 -3574 0
-3550 -3561 -3577 0
-3550 -3561 -3573 0
-3550 -3561 -3576 0
-3550 -3561 -3574 0
-3550 -3561 -3571 0
-3550 -3559 -3567 0
-3550 -3559 -3564 0
-3550 -3560 -3569 0
-3550 -3560 -3567 0
-3550 -3560 -3564 0
-3550 -3563 -3567 0
-3550 -3561 -3569 0
-3550 -3561 -3567 0
-3550 -3561 -3566 0
-3550 -3561 -3564 0
-3390 3550 0
-3391 3549 0
-3392 3552 0
-3389 3551 0
-3549 3391 0
-3550 3390 0
-3551 3389 0
-3552 3392 0
-3579 3581 0
-3580 -3581 0
-3394 3582 -3549 3563 0
-3394 3582 -3550 3574 0
-3394 3582 3549 3550 0
3394 -3582 -3549 3567 0
3394 -3582 -3550 3563 0
3394 -3582 3549 3550 0
-3395 3583 -3549 3560 0
-3395 3583 -3550 3576 0
-3395 3583 3549 3550 0
3395 -3583 -3549 3569 0
3395 -3583 -3550 3560 0
3395 -3583 3549 3550 0
-3396 3584 -3549 -3562 3565 0
-3396 3584 -3549 3562 0
-3396 3584 -3550 -3562 3565 0
-3396 3584 -3550 3562 0
-3396 3584 3549 3550 0
3396 -3584 -3549 -3562 3572 0
3396 -3584 -3549 3562 0
3396 -3584 -3550 -3562 3572 0
3396 -3584 -3550 3562 0
3396 -3584 3549 3550 0
-3397 3585 -3549 -3560 3568 0
-3397 3585 -3549 3560 0
-3397 3585 -3550 -3560 3568 0
-3397 3585 -3550 3560 0
-3397 3585 3549 3550 0
3397 -3585 -3549 -3560 3575 0
3397 -3585 -3549 3560 0
3397 -3585 -3550 -3560 3575 0
3397 -3585 -3550 3560 0
3397 -3585 3549 3550 0
-3399 3586 -3549 -3562 3570 0
-3399 3586 -3549 3562 0
-3399 3586 -3550 -3562 3570 0
-3399 3586 -3550 3562 0
-3399 3586 3549 3550 0
3399 -3586 -3549 -3562 3578 0
3399 -3586 -3549 3562 0
3399 -3586 -3550 -3562 3578 0
3399 -3586 -3550 3562 0
3399 -3586 3549 3550 0
-3400 3587 -3549 -3559 3565 0
-3400 3587 -3549 3559 0
-3400 3587 -3550 -3559 3565 0
-3400 3587 -3550 3559 0
-3400 3587 3549 3550 0
3400 -3587 -3549 -3559 3572 0
3400 -3587 -3549 3559 0
3400 -3587 -3550 -3559 3572 0
3400 -3587 -3550 3559 0
3400 -3587 3549 3550 0
-3401 3588 -3550 3578 0
-3401 3588 3550 0
3401 -3588 -3549 3570 0
3401 -3588 3549 0
-3402 3589 -3549 -3561 3570 0
-3402 3589 -3549 3561 0
-3402 3589 -3550 -3561 3570 0
-3402 3589 -3550 3561 0
-3402 3589 3549 3550 0
3402 -3589 -3549 -3561 3578 0
3402 -3589 -3549 3561 0
3402 -3589 -3550 -3561 3578 0
3402 -3589 -3550 3561 0
3402 -3589 3549 3550 0
-3232 3590 -3549 3578 0
-3232 3590 3549 0
3232 -3590 -3550 3570 0
3232 -3590 3550 0
-3403 3591 -3549 -3562 3567 0
-3403 3591 -3549 3562 0
-3403 3591 -3550 -3562 3567 0
-3403 3591 -3550 3562 0
-3403 3591 3549 3550 0
3403 -3591 -3549 -3562 3574 0
3403 -3591 -3549 3562 0
3403 -3591 -3550 -3562 3574 0
3403 -3591 -3550 3562 0
3403 -3591 3549 3550 0
-3405 3592 -3549 -3563 3569 0
-3405 3592 -3549 3563 0
-3405 3592 -3550 -3563 3569 0
-3405 3592 -3550 3563 0
-3405 3592 3549 3550 0
3405 -3592 -3549 -3563 3576 0
3405 -3592 -3549 3563 0
3405 -3592 -3550 -3563 3576 0
3405 -3592 -3550 3563 0
3405 -3592 3549 3550 0
-3236 3593 -3549 3576 0
-3236 3593 -3550 3560 0
-3236 3593 3549 3550 0
3236 -3593 -3549 3560 0
3236 -3593 -3550 3569 0
3236 -3593 3549 3550 0
-3407 3594 -3549 -3563 3564 0
-3407 3594 -3549 3563 0
-3407 3594 -3550 -3563 3564 0
-3407 3594 -3550 3563 0
-3407 3594 3549 3550 0
3407 -3594 -3549 -3563 3571 0
3407 -3594 -3549 3563 0
3407 -3594 -3550 -3563 3571 0
3407 -3594 -3550 3563 0
3407 -3594 3549 3550 0
-3239 3595 -3549 3577 0
-3239 3595 -3550 3562 0
-3239 3595 3549 3550 0
3239 -3595 -3549 3562 0
3239 -3595 3549 0
-3408 3596 -3549 -3563 3570 0
-3408 3596 -3549 3563 0
-3408 3596 -3550 -3563 3570 0
-3408 3596 -3550 3563 0
-3408 3596 3549 3550 0
3408 -3596 -3549 -3563 3578 0
3408 -3596 -3549 3563 0
3408 -3596 -3550 -3563 3578 0
3408 -3596 -3550 3563 0
3408 -3596 3549 3550 0
-3409 3597 -3549 -3562 3564 0
-3409 3597 -3549 3562 0
-3409 3597 -3550 -3562 3564 0
-3409 3597 -3550 3562 0
-3409 3597 3549 3550 0
3409 -3597 -3549 -3562 3571 0
3409 -3597 -3549 3562 0
3409 -3597 -3550 -3562 3571 0
3409 -3597 -3550 3562 0
3409 -3597 3549 3550 0
-3411 3598 -3549 3561 0
-3411 3598 -3550 3573 0
-3411 3598 3549 3550 0
3411 -3598 -3549 3566 0
3411 -3598 -3550 3561 0
3411 -3598 3549 3550 0
-3243 3599 -3549 3575 0
-3243 3599 3549 0
3243 -3599 -3550 3568 0
3243 -3599 3550 0
-3412 3600 -3549 -3561 3565 0
-3412 3600 -3549 3561 0
-3412 3600 -3550 -3561 3565 0
-3412 3600 -3550 3561 0
-3412 3600 3549 3550 0
3412 -3600 -3549 -3561 3572 0
3412 -3600 -3549 3561 0
3412 -3600 -3550 -3561 3572 0
3412 -3600 -3550 3561 0
3412 -3600 3549 3550 0
-3413 3601 -3549 -3559 3568 0
-3413 3601 -3549 3559 0
-3413 3601 -3550 -3559 3568 0
-3413 3601 -3550 3559 0
-3413 3601 3549 3550 0
3413 -3601 -3549 -3559 3575 0
3413 -3601 -3549 3559 0
3413 -3601 -3550 -3559 3575 0
3413 -3601 -3550 3559 0
3413 -3601 3549 3550 0
-3414 3602 -3550 3572 0
-3414 3602 3550 0
3414 -3602 -3549 3565 0
3414 -3602 3549 0
-3416 3603 -3549 -3560 3570 0
-3416 3603 -3549 3560 0
-3416 3603 -3550 -3560 3570 0
-3416 3603 -3550 3560 0
-3416 3603 3549 3550 0
3416 -3603 -3549 -3560 3578 0
3416 -3603 -3549 3560 0
3416 -3603 -3550 -3560 3578 0
3416 -3603 -3550 3560 0
3416 -3603 3549 3550 0
-3417 3604 -3549 -3562 3569 0
-3417 3604 -3549 3562 0
-3417 3604 -3550 -3562 3569 0
-3417 3604 -3550 3562 0
-3417 3604 3549 3550 0
3417 -3604 -3549 -3562 3576 0
3417 -3604 -3549 3562 0
3417 -3604 -3550 -3562 3576 0
3417 -3604 -3550 3562 0
3417 -3604 3549 3550 0
-3419 3605 -3549 3559 0
-3419 3605 -3550 3571 0
-3419 3605 3549 3550 0
3419 -3605 -3549 3564 0
3419 -3605 -3550 3559 0
3419 -3605 3549 3550 0
-3250 3606 -3549 3573 0
-3250 3606 -3550 3561 0
-3250 3606 3549 3550 0
3250 -3606 -3549 3561 0
3250 -3606 -3550 3566 0
3250 -3606 3549 3550 0
-3420 3607 -3550 3575 0
-3420 3607 3550 0
3420 -3607 -3549 3568 0
3420 -3607 3549 0
-3251 3608 -3549 3571 0
-3251 3608 -3550 3559 0
-3251 3608 3549 3550 0
3251 -3608 -3549 3559 0
3251 -3608 -3550 3564 0
3251 -3608 3549 3550 0
-3421 3609 -3549 -3561 3568 0
-3421 3609 -3549 3561 0
-3421 3609 -3550 -3561 3568 0
-3421 3609 -3550 3561 0
-3421 3609 3549 3550 0
3421 -3609 -3549 -3561 3575 0
3421 -3609 -3549 3561 0
3421 -3609 -3550 -3561 3575 0
3421 -3609 -3550 3561 0
3421 -3609 3549 3550 0
-3423 3610 -3549 -3562 3566 0
-3423 3610 -3549 3562 0
-3423 3610 -3550 -3562 3566 0
-3423 3610 -3550 3562 0
-3423 3610 3549 3550 0
3423 -3610 -3549 -3562 3573 0
3423 -3610 -3549 3562 0
3423 -3610 -3550 -3562 3573 0
3423 -3610 -3550 3562 0
3423 -3610 3549 3550 0
-3424 3611 -3549 -3560 3565 0
-3424 3611 -3549 3560 0
-3424 3611 -3550 -3560 3565 0
-3424 3611 -3550 3560 0
-3424 3611 3549 3550 0
3424 -3611 -3549 -3560 3572 0
3424 -3611 -3549 3560 0
3424 -3611 -3550 -3560 3572 0
3424 -3611 -3550 3560 0
3424 -3611 3549 3550 0
-3425 3612 -3549 -3563 3566 0
-3425 3612 -3549 3563 0
-3425 3612 -3550 -3563 3566 0
-3425 3612 -3550 3563 0
-3425 3612 3549 3550 0
3425 -3612 -3549 -3563 3573 0
3425 -3612 -3549 3563 0
3425 -3612 -3550 -3563 3573 0
3425 -3612 -3550 3563 0
3425 -3612 3549 3550 0
-3426 3613 -3549 3562 0
-3426 3613 -3550 3577 0
-3426 3613 3549 3550 0
3426 -3613 -3550 3562 0
3426 -3613 3550 0
-3427 3614 -3549 -3562 3568 0
-3427 3614 -3549 3562 0
-3427 3614 -3550 -3562 3568 0
-3427 3614 -3550 3562 0
-3427 3614 3549 3550 0
3427 -3614 -3549 -3562 3575 0
3427 -3614 -3549 3562 0
3427 -3614 -3550 -3562 3575 0
3427 -3614 -3550 3562 0
3427 -3614 3549 3550 0
-3258 3615 -3549 3574 0
-3258 3615 -3550 3563 0
-3258 3615 3549 3550 0
3258 -3615 -3549 3563 0
3258 -3615 -3550 3567 0
3258 -3615 3549 3550 0
-3428 3616 -3549 -3563 3568 0
-3428 3616 -3549 3563 0
-3428 3616 -3550 -3563 3568 0
-3428 3616 -3550 3563 0
-3428 3616 3549 3550 0
3428 -3616 -3549 -3563 3575 0
3428 -3616 -3549 3563 0
3428 -3616 -3550 -3563 3575 0
3428 -3616 -3550 3563 0
3428 -3616 3549 3550 0
-3429 3617 -3549 -3563 3565 0
-3429 3617 -3549 3563 0
-3429 3617 -3550 -3563 3565 0
-3429 3617 -3550 3563 0
-3429 3617 3549 3550 0
3429 -3617 -3549 -3563 3572 0
3429 -3617 -3549 3563 0
3429 -3617 -3550 -3563 3572 0
3429 -3617 -3550 3563 0
3429 -3617 3549 3550 0
-3430 3618 -3549 -3559 3569 0
-3430 3618 -3549 3559 0
-3430 3618 -3550 -3559 3569 0
-3430 3618 -3550 3559 0
-3430 3618 3549 3550 0
3430 -3618 -3549 -3559 3576 0
3430 -3618 -3549 3559 0
3430 -3618 -3550 -3559 3576 0
3430 -3618 -3550 3559 0
3430 -3618 3549 3550 0
-3262 3619 -3549 3572 0
-3262 3619 3549 0
3262 -3619 -3550 3565 0
3262 -3619 3550 0
-3432 3620 -3549 -3559 3570 0
-3432 3620 -3549 3559 0
-3432 3620 -3550 -3559 3570 0
-3432 3620 -3550 3559 0
-3432 3620 3549 3550 0
3432 -3620 -3549 -3559 3578 0
3432 -3620 -3549 3559 0
3432 -3620 -3550 -3559 3578 0
3432 -3620 -3550 3559 0
3432 -3620 3549 3550 0
-3433 3621 -3549 -3560 3566 0
-3433 3621 -3549 3560 0
-3433 3621 -3550 -3560 3566 0
-3433 3621 -3550 3560 0
-3433 3621 3549 3550 0
3433 -3621 -3549 -3560 3573 0
3433 -3621 -3549 3560 0
3433 -3621 -3550 -3560 3573 0
3433 -3621 -3550 3560 0
3433 -3621 3549 3550 0
-3434 3622 -3549 -3559 3566 0
-3434 3622 -3549 3559 0
-3434 3622 -3550 -3559 3566 0
-3434 3622 -3550 3559 0
-3434 3622 3549 3550 0
3434 -3622 -3549 -3559 3573 0
3434 -3622 -3549 3559 0
3434 -3622 -3550 -3559 3573 0
3434 -3622 -3550 3559 0
3434 -3622 3549 3550 0
-3579 -3580 0
-3559 3623 -3608 0
-3562 3623 -3595 0
-3560 3623 -3593 0
-3563 3623 -3615 0
-3561 3623 -3606 0
-3559 -3623 3608 0
-3562 -3623 3595 0
-3560 -3623 3593 0
-3563 -3623 3615 0
-3561 -3623 3606 0
-3559 3624 -3605 0
-3563 3624 -3582 0
-3560 3624 -3583 0
-3561 3624 -3598 0
-3562 3624 -3613 0
-3559 -3624 3605 0
-3563 -3624 3582 0
-3560 -3624 3583 0
-3561 -3624 3598 0
-3562 -3624 3613 0
-3575 3625 -3607 0
-3574 3625 -3582 0
-3576 3625 -3583 0
-3572 3625 -3602 0
-3571 3625 -3605 0
-3573 3625 -3598 0
-3577 3625 -3613 0
-3578 3625 -3588 0
-3571 3626 -3608 0
-3576 3626 -3593 0
-3572 3626 -3619 0
-3577 3626 -3595 0
-3575 3626 -3599 0
-3574 3626 -3615 0
-3573 3626 -3606 0
-3578 3626 -3590 0
-3564 -3627 3608 0
-3569 -3627 3593 0
-3565 -3627 3619 0
-3568 -3627 3599 0
-3567 -3627 3615 0
-3566 -3627 3606 0
-3570 -3627 3590 0
-3562 -3564 3628 -3597 0
-3562 -3569 3628 -3604 0
-3562 -3565 3628 -3584 0
-3560 -3568 3628 -3585 0
-3562 -3570 3628 -3586 0
-3559 -3565 3628 -3587 0
-3561 -3565 3628 -3600 0
-3563 -3568 3628 -3616 0
-3561 -3570 3628 -3589 0
-3562 -3567 3628 -3591 0
-3561 -3568 3628 -3609 0
-3559 -3568 3628 -3601 0
-3563 -3569 3628 -3592 0
-3563 -3565 3628 -3617 0
-3559 -3569 3628 -3618 0
-3562 -3566 3628 -3610 0
-3560 -3565 3628 -3611 0
-3563 -3564 3628 -3594 0
-3563 -3566 3628 -3612 0
-3560 -3570 3628 -3603 0
-3563 -3570 3628 -3596 0
-3562 -3568 3628 -3614 0
-3559 -3570 3628 -3620 0
-3560 -3566 3628 -3621 0
-3559 -3566 3628 -3622 0
-3562 -3571 -3629 3597 0
-3562 -3576 -3629 3604 0
-3562 -3572 -3629 3584 0
-3560 -3575 -3629 3585 0
-3562 -3578 -3629 3586 0
-3559 -3572 -3629 3587 0
-3561 -3572 -3629 3600 0
-3563 -3575 -3629 3616 0
-3561 -3578 -3629 3589 0
-3562 -3574 -3629 3591 0
-3561 -3575 -3629 3609 0
-3559 -3575 -3629 3601 0
-3563 -3576 -3629 3592 0
-3563 -3572 -3629 3617 0
-3559 -3576 -3629 3618 0
-3562 -3573 -3629 3610 0
-3560 -3572 -3629 3611 0
-3563 -3571 -3629 3594 0
-3563 -3573 -3629 3612 0
-3560 -3578 -3629 3603 0
-3563 -3578 -3629 3596 0
-3562 -3575 -3629 3614 0
-3559 -3578 -3629 3620 0
-3560 -3573 -3629 3621 0
-3559 -3573 -3629 3622 0
-3568 -3630 3607 0
-3567 -3630 3582 0
-3569 -3630 3583 0
-3565 -3630 3602 0
-3564 -3630 3605 0
-3566 -3630 3598 0
-3570 -3630 3588 0
-3631 3564 -3571 0
-3631 -3564 3571 0
-3631 3565 -3572 0
-3631 -3565 3572 0
-3631 3566 -3573 0
-3631 -3566 3573 0
-3631 3567 -3574 0
-3631 -3567 3574 0
-3631 3568 -3575 0
-3631 -3568 3575 0
-3631 3569 -3576 0
-3631 -3569 3576 0
-3631 3570 -3578 0
-3631 -3570 3578 0
-3564 -3571 3631 0
-3565 -3572 3631 0
-3566 -3573 3631 0
-3567 -3574 3631 0
-3568 -3575 3631 0
-3569 -3576 3631 0
-3570 -3578 3631 0
-3577 -3631 0
-3549 -3628 3631 0
-3632 3559 -3564 0
-3632 -3559 3564 0
-3632 3560 -3569 0
-3632 -3560 3569 0
-3632 3561 -3566 0
-3632 -3561 3566 0
-3632 3563 -3567 0
-3632 -3563 3567 0
-3559 -3564 3632 0
-3560 -3569 3632 0
-3561 -3566 3632 0
-3563 -3567 3632 0
-3562 -3632 0
-3568 -3632 0
-3565 -3632 0
-3570 -3632 0
-3549 -3624 3632 0
-3549 3630 0
-3633 3571 -3564 0
-3633 -3571 3564 0
-3633 3572 -3565 0
-3633 -3572 3565 0
-3633 3573 -3566 0
-3633 -3573 3566 0
-3633 3574 -3567 0
-3633 -3574 3567 0
-3633 3575 -3568 0
-3633 -3575 3568 0
-3633 3576 -3569 0
-3633 -3576 3569 0
-3633 3578 -3570 0
-3633 -3578 3570 0
-3571 -3564 3633 0
-3572 -3565 3633 0
-3573 -3566 3633 0
-3574 -3567 3633 0
-3575 -3568 3633 0
-3576 -3569 3633 0
-3578 -3570 3633 0
-3577 -3633 0
-3634 3571 -3559 0
-3634 -3571 3559 0
-3634 3576 -3560 0
-3634 -3576 3560 0
-3634 3573 -3561 0
-3634 -3573 3561 0
-3634 3577 -3562 0
-3634 -3577 3562 0
-3634 3574 -3563 0
-3634 -3574 3563 0
-3571 -3559 3634 0
-3576 -3560 3634 0
-3573 -3561 3634 0
-3577 -3562 3634 0
-3574 -3563 3634 0
-3575 -3634 0
-3572 -3634 0
-3578 -3634 0
-3549 -3626 3634 0
-3549 3623 0
-3549 3629 0
-3550 3624 0
-3550 -3628 3631 0
-3550 -3623 3632 0
-3550 3627 0
-3550 -3625 3634 0
-3550 3629 0
-3390 3580 0
-3391 3580 0
-3392 3579 0
-3389 3579 0
-3580 3390 3391 0
-3579 3392 3389 0
-3582 151 -3581 0
3582 -151 -3581 0
-3583 152 -3581 0
3583 -152 -3581 0
-3584 154 -3581 0
3584 -154 -3581 0
-3585 155 -3581 0
3585 -155 -3581 0
-3398 385 -3581 0
3398 -385 -3581 0
-3586 156 -3581 0
3586 -156 -3581 0
-3587 158 -3581 0
3587 -158 -3581 0
-3588 159 -3581 0
3588 -159 -3581 0
-3589 160 -3581 0
3589 -160 -3581 0
-3590 602 -3581 0
3590 -602 -3581 0
-3591 10 -3581 0
3591 -10 -3581 0
-3404 162 -3581 0
3404 -162 -3581 0
-3592 163 -3581 0
3592 -163 -3581 0
-3593 270 -3581 0
3593 -270 -3581 0
-3406 386 -3581 0
3406 -386 -3581 0
-3594 11 -3581 0
3594 -11 -3581 0
-3595 271 -3581 0
3595 -271 -3581 0
-3596 167 -3581 0
3596 -167 -3581 0
-3597 170 -3581 0
3597 -170 -3581 0
-3410 171 -3581 0
3410 -171 -3581 0
-3598 172 -3581 0
3598 -172 -3581 0
-3599 273 -3581 0
3599 -273 -3581 0
-3600 12 -3581 0
3600 -12 -3581 0
-3601 174 -3581 0
3601 -174 -3581 0
-3602 274 -3581 0
3602 -274 -3581 0
-3415 387 -3581 0
3415 -387 -3581 0
-3603 176 -3581 0
3603 -176 -3581 0
-3604 153 -3581 0
3604 -153 -3581 0
-3418 388 -3581 0
3418 -388 -3581 0
-3605 157 -3581 0
3605 -157 -3581 0
-3606 267 -3581 0
3606 -267 -3581 0
-3607 268 -3581 0
3607 -268 -3581 0
-3608 269 -3581 0
3608 -269 -3581 0
-3609 161 -3581 0
3609 -161 -3581 0
-3422 389 -3581 0
3422 -389 -3581 0
-3610 164 -3581 0
3610 -164 -3581 0
-3611 165 -3581 0
3611 -165 -3581 0
-3612 166 -3581 0
3612 -166 -3581 0
-3613 168 -3581 0
3613 -168 -3581 0
-3614 169 -3581 0
3614 -169 -3581 0
-3615 272 -3581 0
3615 -272 -3581 0
-3616 173 -3581 0
3616 -173 -3581 0
-3617 175 -3581 0
3617 -175 -3581 0
-3618 13 -3581 0
3618 -13 -3581 0
-3619 603 -3581 0
3619 -603 -3581 0
-3431 390 -3581 0
3431 -390 -3581 0
-3620 177 -3581 0
3620 -177 -3581 0
-3621 14 -3581 0
3621 -14 -3581 0
-3622 178 -3581 0
3622 -178 -3581 0
-3462 3635 0
-3635 3462 0
a 3581 0
